************************************************************************
file with basedata            : mm47_.bas
initial value random generator: 889770299
************************************************************************
projects                      :  1
jobs (incl. supersource/sink ):  12
horizon                       :  77
RESOURCES
  - renewable                 :  2   R
  - nonrenewable              :  2   N
  - doubly constrained        :  0   D
************************************************************************
PROJECT INFORMATION:
pronr.  #jobs rel.date duedate tardcost  MPM-Time
    1     10      0       11        4       11
************************************************************************
PRECEDENCE RELATIONS:
jobnr.    #modes  #successors   successors
   1        1          3           2   3   4
   2        3          1          11
   3        3          1           8
   4        3          2           5   8
   5        3          3           6   7  10
   6        3          1           9
   7        3          2           9  11
   8        3          2           9  11
   9        3          1          12
  10        3          1          12
  11        3          1          12
  12        1          0        
************************************************************************
REQUESTS/DURATIONS:
jobnr. mode duration  R 1  R 2  N 1  N 2
------------------------------------------------------------------------
  1      1     0       0    0    0    0
  2      1     2       5    6    2    6
         2     2       6    4    2    7
         3     5       5    3    1    2
  3      1     2       8    3    6    8
         2     5       5    3    4    7
         3     7       3    2    2    5
  4      1     2       3    3    9    6
         2     5       1    1    8    3
         3     5       3    2    8    2
  5      1     4       6    9    7    6
         2     7       4    6    6    1
         3     7       4    4    5    4
  6      1     2       6    9    6    7
         2     2       6    6    7    6
         3    10       5    4    5    2
  7      1     2       7    9    6    7
         2     7       4    9    5    7
         3     9       2    8    4    6
  8      1     6       6    7    6    8
         2     7       5    6    6    7
         3     7       3    7    6    7
  9      1     3       7    8    8    9
         2     6       7    5    5    8
         3     8       5    2    1    7
 10      1     2       6    8    5    6
         2     3       6    6    4    5
         3    10       6    4    2    4
 11      1     1       6    7    6    3
         2     6       4    5    6    2
         3     9       4    3    3    1
 12      1     0       0    0    0    0
************************************************************************
RESOURCEAVAILABILITIES:
  R 1  R 2  N 1  N 2
   16   21   55   58
************************************************************************
MAXIMAL LAGS:
from  to  type  delay
    1   12   ES      0
    1    2   ES      0
    2   12   ES      0
    1    3   ES      0
    3   12   ES      0
    1    4   ES      0
    4   12   ES      0
    1    5   ES      0
    5   12   ES      0
    1    6   ES      0
    6   12   ES      0
    1    7   ES      0
    7   12   ES      0
    1    8   ES      0
    8   12   ES      0
    1    9   ES      0
    9   12   ES      0
    1   10   ES      0
   10   12   ES      0
    1   11   ES      0
   11   12   ES      0
    1   12   ES      0
    2   11   SS    -11
    2   11   SE      7
    2   11   ES      2
    2   11   EE      7
    3    8   SS     -7
    3    8   SE    -10
    3    8   ES     -1
    3    8   EE      8
    4    5   SS      5
    4    5   SE     -5
    4    5   ES     -1
    4    5   EE      8
    4    8   SS    -12
    4    8   SE     -6
    4    8   ES     -4
    4    8   EE     -3
    5    6   SS      1
    5    6   SE      6
    5    6   ES     11
    5    6   EE     -3
    5    7   SS     -1
    5    7   SE      7
    5    7   ES     12
    5    7   EE      0
    5   10   SS     -4
    5   10   SE      5
    5   10   ES      5
    5   10   EE      8
    6    9   SS      9
    6    9   SE     -6
    6    9   ES    -10
    6    9   EE      6
    7    9   SS     -8
    7    9   SE     -9
    7    9   ES     11
    7    9   EE     -6
    7   11   SS     -4
    7   11   SE     -7
    7   11   ES     -4
    7   11   EE      6
    8    9   SS     -9
    8    9   SE     -8
    8    9   ES      4
    8    9   EE      6
    8   11   SS      8
    8   11   SE     12
   11    8   SE      0
    8   11   ES      0
    8   11   EE     -2
************************************************************************
